single_objective/SL-DABL/OP/problems/op/OPLib-master/solutions/ea4op/gen3/u159-gen3-50.sol
NAME : u159
TYPE : OP
DIMENSION : 159
COST_LIMIT : 21040
ROUTE_NODES : 84
ROUTE_SCORE : 5272
ROUTE_COST : 21040
NODE_SEQUENCE_SECTION
1
2
4
5
153
152
7
148
147
146
144
145
141
140
138
37
36
38
39
40
43
45
46
47
48
49
50
51
52
53
54
55
56
57
58
59
60
61
62
64
65
66
67
68
69
70
71
72
78
79
80
81
82
83
84
85
86
97
98
99
100
101
102
103
104
105
95
96
87
88
89
90
91
92
93
118
117
116
115
114
124
129
127
126
-1
DEPOT_SECTION
1
-1
EOF
